p cnf 967 2484
51 -700 -1 0
-51 700 0
-51 1 0
52 -51 -701 0
-52 51 0
-52 701 0
53 -702 -4 0
-53 702 0
-53 4 0
54 -53 -6 0
-54 53 0
-54 6 0
55 -703 -704 0
-55 703 0
-55 704 0
56 -8 -7 0
-56 8 0
-56 7 0
57 -56 -705 0
-57 56 0
-57 705 0
58 -706 -55 0
-58 706 0
-58 55 0
59 -11 -10 0
-59 11 0
-59 10 0
60 -59 -707 0
-60 59 0
-60 707 0
61 -708 -58 0
-61 708 0
-61 58 0
62 -709 -11 0
-62 709 0
-62 11 0
63 -62 -14 0
-63 62 0
-63 14 0
64 -710 -61 0
-64 710 0
-64 61 0
65 -15 -709 0
-65 15 0
-65 709 0
66 -65 -5 0
-66 65 0
-66 5 0
67 -711 -64 0
-67 711 0
-67 64 0
68 -712 -713 0
-68 712 0
-68 713 0
69 -68 -702 0
-69 68 0
-69 702 0
70 -714 -67 0
-70 714 0
-70 67 0
71 -715 -17 0
-71 715 0
-71 17 0
72 -71 -15 0
-72 71 0
-72 15 0
73 -716 -70 0
-73 716 0
-73 70 0
74 -19 -7 0
-74 19 0
-74 7 0
75 -74 -717 0
-75 74 0
-75 717 0
76 -718 -73 0
-76 718 0
-76 73 0
77 -719 -18 0
-77 719 0
-77 18 0
78 -77 -720 0
-78 77 0
-78 720 0
79 -721 -76 0
-79 721 0
-79 76 0
80 -17 -707 0
-80 17 0
-80 707 0
81 -80 -722 0
-81 80 0
-81 722 0
82 -723 -79 0
-82 723 0
-82 79 0
83 -24 -8 0
-83 24 0
-83 8 0
84 -83 -14 0
-84 83 0
-84 14 0
85 -724 -82 0
-85 724 0
-85 82 0
86 -725 -25 0
-86 725 0
-86 25 0
87 -86 -27 0
-87 86 0
-87 27 0
88 -726 -85 0
-88 726 0
-88 85 0
89 -727 -728 0
-89 727 0
-89 728 0
90 -89 -3 0
-90 89 0
-90 3 0
91 -729 -88 0
-91 729 0
-91 88 0
92 -30 -715 0
-92 30 0
-92 715 0
93 -92 -730 0
-93 92 0
-93 730 0
94 -731 -91 0
-94 731 0
-94 91 0
95 -32 -732 0
-95 32 0
-95 732 0
96 -95 -14 0
-96 95 0
-96 14 0
97 -733 -94 0
-97 733 0
-97 94 0
98 -727 -28 0
-98 727 0
-98 28 0
99 -98 -33 0
-99 98 0
-99 33 0
100 -734 -97 0
-100 734 0
-100 97 0
101 -735 -712 0
-101 735 0
-101 712 0
102 -101 -720 0
-102 101 0
-102 720 0
103 -736 -100 0
-103 736 0
-103 100 0
104 -737 -707 0
-104 737 0
-104 707 0
105 -104 -23 0
-105 104 0
-105 23 0
106 -738 -103 0
-106 738 0
-106 103 0
107 -36 -739 0
-107 36 0
-107 739 0
108 -107 -37 0
-108 107 0
-108 37 0
109 -740 -106 0
-109 740 0
-109 106 0
110 -38 -22 0
-110 38 0
-110 22 0
111 -110 -33 0
-111 110 0
-111 33 0
112 -741 -109 0
-112 741 0
-112 109 0
113 -24 -700 0
-113 24 0
-113 700 0
114 -113 -6 0
-114 113 0
-114 6 0
115 -742 -112 0
-115 742 0
-115 112 0
116 -743 -25 0
-116 743 0
-116 25 0
117 -116 -725 0
-117 116 0
-117 725 0
118 -744 -115 0
-118 744 0
-118 115 0
119 -27 -26 0
-119 27 0
-119 26 0
120 -119 -14 0
-120 119 0
-120 14 0
121 -745 -118 0
-121 745 0
-121 118 0
122 -746 -18 0
-122 746 0
-122 18 0
123 -122 -12 0
-123 122 0
-123 12 0
124 -747 -121 0
-124 747 0
-124 121 0
125 -17 -748 0
-125 17 0
-125 748 0
126 -125 -719 0
-126 125 0
-126 719 0
127 -749 -124 0
-127 749 0
-127 124 0
128 -40 -1 0
-128 40 0
-128 1 0
129 -128 -730 0
-129 128 0
-129 730 0
130 -750 -127 0
-130 750 0
-130 127 0
131 -751 -35 0
-131 751 0
-131 35 0
132 -131 -23 0
-132 131 0
-132 23 0
133 -752 -130 0
-133 752 0
-133 130 0
134 -42 -26 0
-134 42 0
-134 26 0
135 -134 -27 0
-135 134 0
-135 27 0
136 -753 -133 0
-136 753 0
-136 133 0
137 -43 -754 0
-137 43 0
-137 754 0
138 -137 -702 0
-138 137 0
-138 702 0
139 -755 -136 0
-139 755 0
-139 136 0
140 -41 -17 0
-140 41 0
-140 17 0
141 -140 -44 0
-141 140 0
-141 44 0
142 -756 -139 0
-142 756 0
-142 139 0
143 -732 -757 0
-143 732 0
-143 757 0
144 -143 -735 0
-144 143 0
-144 735 0
145 -758 -142 0
-145 758 0
-145 142 0
146 -34 -1 0
-146 34 0
-146 1 0
147 -146 -39 0
-147 146 0
-147 39 0
148 -759 -145 0
-148 759 0
-148 145 0
149 -146 -5 0
-149 146 0
-149 5 0
150 -760 -148 0
-150 760 0
-150 148 0
151 -761 -4 0
-151 761 0
-151 4 0
152 -151 -713 0
-152 151 0
-152 713 0
153 -762 -150 0
-153 762 0
-153 150 0
154 -763 -713 0
-154 763 0
-154 713 0
155 -154 -764 0
-155 154 0
-155 764 0
156 -765 -153 0
-156 765 0
-156 153 0
157 -766 -15 0
-157 766 0
-157 15 0
158 -157 -39 0
-158 157 0
-158 39 0
159 -767 -156 0
-159 767 0
-159 156 0
160 -761 -32 0
-160 761 0
-160 32 0
161 -160 -27 0
-161 160 0
-161 27 0
162 -768 -159 0
-162 768 0
-162 159 0
163 -751 -713 0
-163 751 0
-163 713 0
164 -163 -40 0
-164 163 0
-164 40 0
165 -769 -162 0
-165 769 0
-165 162 0
166 -770 -771 0
-166 770 0
-166 771 0
167 -166 -702 0
-167 166 0
-167 702 0
168 -772 -165 0
-168 772 0
-168 165 0
169 -773 -743 0
-169 773 0
-169 743 0
170 -169 -730 0
-170 169 0
-170 730 0
171 -774 -168 0
-171 774 0
-171 168 0
172 -47 -735 0
-172 47 0
-172 735 0
173 -172 -39 0
-173 172 0
-173 39 0
174 -775 -171 0
-174 775 0
-174 171 0
175 -761 -2 0
-175 761 0
-175 2 0
176 -175 -776 0
-176 175 0
-176 776 0
177 -777 -174 0
-177 777 0
-177 174 0
178 -751 -40 0
-178 751 0
-178 40 0
179 -178 -778 0
-179 178 0
-179 778 0
180 -779 -177 0
-180 779 0
-180 177 0
181 -761 -24 0
-181 761 0
-181 24 0
182 -181 -29 0
-182 181 0
-182 29 0
183 -780 -180 0
-183 780 0
-183 180 0
184 -735 -748 0
-184 735 0
-184 748 0
185 -184 -33 0
-185 184 0
-185 33 0
186 -781 -183 0
-186 781 0
-186 183 0
187 -751 -1 0
-187 751 0
-187 1 0
188 -187 -26 0
-188 187 0
-188 26 0
189 -782 -186 0
-189 782 0
-189 186 0
190 -783 -10 0
-190 783 0
-190 10 0
191 -190 -748 0
-191 190 0
-191 748 0
192 -784 -189 0
-192 784 0
-192 189 0
193 -785 -709 0
-193 785 0
-193 709 0
194 -193 -29 0
-194 193 0
-194 29 0
195 -786 -192 0
-195 786 0
-195 192 0
196 -715 -7 0
-196 715 0
-196 7 0
197 -196 -44 0
-197 196 0
-197 44 0
198 -787 -195 0
-198 787 0
-198 195 0
199 -746 -771 0
-199 746 0
-199 771 0
200 -199 -722 0
-200 199 0
-200 722 0
201 -788 -198 0
-201 788 0
-201 198 0
202 -789 -10 0
-202 789 0
-202 10 0
203 -202 -6 0
-203 202 0
-203 6 0
204 -790 -201 0
-204 790 0
-204 201 0
205 -746 -7 0
-205 746 0
-205 7 0
206 -205 -702 0
-206 205 0
-206 702 0
207 -791 -204 0
-207 791 0
-207 204 0
208 -702 -3 0
-208 702 0
-208 3 0
209 -208 -31 0
-209 208 0
-209 31 0
210 -792 -207 0
-210 792 0
-210 207 0
211 -743 -20 0
-211 743 0
-211 20 0
212 -211 -14 0
-212 211 0
-212 14 0
213 -793 -210 0
-213 793 0
-213 210 0
214 -49 -28 0
-214 49 0
-214 28 0
215 -214 -11 0
-215 214 0
-215 11 0
216 -794 -213 0
-216 794 0
-216 213 0
217 -761 -712 0
-217 761 0
-217 712 0
218 -217 -701 0
-218 217 0
-218 701 0
219 -795 -216 0
-219 795 0
-219 216 0
220 -771 -796 0
-220 771 0
-220 796 0
221 -220 -725 0
-221 220 0
-221 725 0
222 -797 -219 0
-222 797 0
-222 219 0
223 -44 -712 0
-223 44 0
-223 712 0
224 -223 -778 0
-224 223 0
-224 778 0
225 -798 -222 0
-225 798 0
-225 222 0
226 -717 -1 0
-226 717 0
-226 1 0
227 -226 -799 0
-227 226 0
-227 799 0
228 -800 -225 0
-228 800 0
-228 225 0
229 -47 -24 0
-229 47 0
-229 24 0
230 -229 -27 0
-230 229 0
-230 27 0
231 -801 -228 0
-231 801 0
-231 228 0
232 -802 -709 0
-232 802 0
-232 709 0
233 -232 -45 0
-233 232 0
-233 45 0
234 -803 -231 0
-234 803 0
-234 231 0
235 -32 -13 0
-235 32 0
-235 13 0
236 -235 -4 0
-236 235 0
-236 4 0
237 -804 -234 0
-237 804 0
-237 234 0
238 -805 -735 0
-238 805 0
-238 735 0
239 -238 -46 0
-239 238 0
-239 46 0
240 -806 -237 0
-240 806 0
-240 237 0
241 -807 -10 0
-241 807 0
-241 10 0
242 -241 -4 0
-242 241 0
-242 4 0
243 -808 -240 0
-243 808 0
-243 240 0
244 -746 -785 0
-244 746 0
-244 785 0
245 -244 -29 0
-245 244 0
-245 29 0
246 -809 -243 0
-246 809 0
-246 243 0
247 -34 -771 0
-247 34 0
-247 771 0
248 -247 -46 0
-248 247 0
-248 46 0
249 -810 -246 0
-249 810 0
-249 246 0
250 -9 -799 0
-250 9 0
-250 799 0
251 -250 -764 0
-251 250 0
-251 764 0
252 -811 -249 0
-252 811 0
-252 249 0
253 -48 -47 0
-253 48 0
-253 47 0
254 -253 -743 0
-254 253 0
-254 743 0
255 -812 -252 0
-255 812 0
-255 252 0
256 -34 -728 0
-256 34 0
-256 728 0
257 -256 -722 0
-257 256 0
-257 722 0
258 -813 -255 0
-258 813 0
-258 255 0
259 -50 -7 0
-259 50 0
-259 7 0
260 -259 -771 0
-260 259 0
-260 771 0
261 -814 -258 0
-261 814 0
-261 258 0
262 -746 -24 0
-262 746 0
-262 24 0
263 -262 -735 0
-263 262 0
-263 735 0
264 -815 -261 0
-264 815 0
-264 261 0
265 -29 -754 0
-265 29 0
-265 754 0
266 -265 -701 0
-266 265 0
-266 701 0
267 -816 -264 0
-267 816 0
-267 264 0
268 -817 -13 0
-268 817 0
-268 13 0
269 -268 -12 0
-269 268 0
-269 12 0
270 -818 -267 0
-270 818 0
-270 267 0
271 -30 -19 0
-271 30 0
-271 19 0
272 -271 -31 0
-272 271 0
-272 31 0
273 -819 -270 0
-273 819 0
-273 270 0
274 -820 -17 0
-274 820 0
-274 17 0
275 -274 -27 0
-275 274 0
-275 27 0
276 -821 -273 0
-276 821 0
-276 273 0
277 -34 -712 0
-277 34 0
-277 712 0
278 -277 -702 0
-278 277 0
-278 702 0
279 -822 -276 0
-279 822 0
-279 276 0
280 -807 -12 0
-280 807 0
-280 12 0
281 -280 -730 0
-281 280 0
-281 730 0
282 -823 -279 0
-282 823 0
-282 279 0
283 -47 -824 0
-283 47 0
-283 824 0
284 -283 -34 0
-284 283 0
-284 34 0
285 -825 -282 0
-285 825 0
-285 282 0
286 -732 -783 0
-286 732 0
-286 783 0
287 -286 -705 0
-287 286 0
-287 705 0
288 -826 -285 0
-288 826 0
-288 285 0
289 -827 -18 0
-289 827 0
-289 18 0
290 -289 -828 0
-290 289 0
-290 828 0
291 -829 -288 0
-291 829 0
-291 288 0
292 -40 -700 0
-292 40 0
-292 700 0
293 -292 -31 0
-293 292 0
-293 31 0
294 -830 -291 0
-294 830 0
-294 291 0
295 -26 -757 0
-295 26 0
-295 757 0
296 -295 -778 0
-296 295 0
-296 778 0
297 -831 -294 0
-297 831 0
-297 294 0
298 -48 -717 0
-298 48 0
-298 717 0
299 -298 -776 0
-299 298 0
-299 776 0
300 -832 -297 0
-300 832 0
-300 297 0
301 -751 -29 0
-301 751 0
-301 29 0
302 -301 -766 0
-302 301 0
-302 766 0
303 -833 -300 0
-303 833 0
-303 300 0
304 -34 -29 0
-304 34 0
-304 29 0
305 -304 -26 0
-305 304 0
-305 26 0
306 -834 -303 0
-306 834 0
-306 303 0
307 -24 -1 0
-307 24 0
-307 1 0
308 -307 -9 0
-308 307 0
-308 9 0
309 -835 -306 0
-309 835 0
-309 306 0
310 -29 -771 0
-310 29 0
-310 771 0
311 -310 -6 0
-311 310 0
-311 6 0
312 -836 -309 0
-312 836 0
-312 309 0
313 -17 -13 0
-313 17 0
-313 13 0
314 -313 -764 0
-314 313 0
-314 764 0
315 -837 -312 0
-315 837 0
-315 312 0
316 -783 -4 0
-316 783 0
-316 4 0
317 -316 -44 0
-317 316 0
-317 44 0
318 -838 -315 0
-318 838 0
-318 315 0
319 -719 -783 0
-319 719 0
-319 783 0
320 -319 -44 0
-320 319 0
-320 44 0
321 -839 -318 0
-321 839 0
-321 318 0
322 -802 -7 0
-322 802 0
-322 7 0
323 -322 -8 0
-323 322 0
-323 8 0
324 -840 -321 0
-324 840 0
-324 321 0
325 -727 -17 0
-325 727 0
-325 17 0
326 -325 -44 0
-326 325 0
-326 44 0
327 -841 -324 0
-327 841 0
-327 324 0
328 -43 -785 0
-328 43 0
-328 785 0
329 -328 -23 0
-329 328 0
-329 23 0
330 -842 -327 0
-330 842 0
-330 327 0
331 -42 -799 0
-331 42 0
-331 799 0
332 -331 -29 0
-332 331 0
-332 29 0
333 -843 -330 0
-333 843 0
-333 330 0
334 -49 -817 0
-334 49 0
-334 817 0
335 -334 -743 0
-335 334 0
-335 743 0
336 -844 -333 0
-336 844 0
-336 333 0
337 -807 -709 0
-337 807 0
-337 709 0
338 -337 -799 0
-338 337 0
-338 799 0
339 -845 -336 0
-339 845 0
-339 336 0
340 -802 -743 0
-340 802 0
-340 743 0
341 -340 -31 0
-341 340 0
-341 31 0
342 -846 -339 0
-342 846 0
-342 339 0
343 -37 -18 0
-343 37 0
-343 18 0
344 -343 -11 0
-344 343 0
-344 11 0
345 -847 -342 0
-345 847 0
-345 342 0
346 -824 -10 0
-346 824 0
-346 10 0
347 -346 -37 0
-347 346 0
-347 37 0
348 -848 -345 0
-348 848 0
-348 345 0
349 -25 -796 0
-349 25 0
-349 796 0
350 -349 -15 0
-350 349 0
-350 15 0
351 -849 -348 0
-351 849 0
-351 348 0
352 -42 -20 0
-352 42 0
-352 20 0
353 -352 -49 0
-353 352 0
-353 49 0
354 -850 -351 0
-354 850 0
-354 351 0
355 -35 -4 0
-355 35 0
-355 4 0
356 -355 -39 0
-356 355 0
-356 39 0
357 -851 -354 0
-357 851 0
-357 354 0
358 -48 -10 0
-358 48 0
-358 10 0
359 -358 -49 0
-359 358 0
-359 49 0
360 -852 -357 0
-360 852 0
-360 357 0
361 -25 -8 0
-361 25 0
-361 8 0
362 -361 -14 0
-362 361 0
-362 14 0
363 -853 -360 0
-363 853 0
-363 360 0
364 -34 -6 0
-364 34 0
-364 6 0
365 -364 -778 0
-365 364 0
-365 778 0
366 -854 -363 0
-366 854 0
-366 363 0
367 -20 -17 0
-367 20 0
-367 17 0
368 -367 -43 0
-368 367 0
-368 43 0
369 -855 -366 0
-369 855 0
-369 366 0
370 -751 -36 0
-370 751 0
-370 36 0
371 -370 -3 0
-371 370 0
-371 3 0
372 -856 -369 0
-372 856 0
-372 369 0
373 -712 -783 0
-373 712 0
-373 783 0
374 -373 -23 0
-374 373 0
-374 23 0
375 -857 -372 0
-375 857 0
-375 372 0
376 -18 -5 0
-376 18 0
-376 5 0
377 -376 -730 0
-377 376 0
-377 730 0
378 -858 -375 0
-378 858 0
-378 375 0
379 -22 -1 0
-379 22 0
-379 1 0
380 -379 -3 0
-380 379 0
-380 3 0
381 -859 -378 0
-381 859 0
-381 378 0
382 -35 -3 0
-382 35 0
-382 3 0
383 -382 -23 0
-383 382 0
-383 23 0
384 -860 -381 0
-384 860 0
-384 381 0
385 -824 -705 0
-385 824 0
-385 705 0
386 -385 -5 0
-386 385 0
-386 5 0
387 -861 -384 0
-387 861 0
-387 384 0
388 -38 -32 0
-388 38 0
-388 32 0
389 -388 -771 0
-389 388 0
-389 771 0
390 -862 -387 0
-390 862 0
-390 387 0
391 -47 -739 0
-391 47 0
-391 739 0
392 -391 -770 0
-392 391 0
-392 770 0
393 -863 -390 0
-393 863 0
-393 390 0
394 -746 -715 0
-394 746 0
-394 715 0
395 -394 -37 0
-395 394 0
-395 37 0
396 -864 -393 0
-396 864 0
-396 393 0
397 -766 -2 0
-397 766 0
-397 2 0
398 -397 -23 0
-398 397 0
-398 23 0
399 -865 -396 0
-399 865 0
-399 396 0
400 -41 -7 0
-400 41 0
-400 7 0
401 -400 -727 0
-401 400 0
-401 727 0
402 -866 -399 0
-402 866 0
-402 399 0
403 -746 -709 0
-403 746 0
-403 709 0
404 -403 -748 0
-404 403 0
-404 748 0
405 -867 -402 0
-405 867 0
-405 402 0
406 -789 -802 0
-406 789 0
-406 802 0
407 -406 -776 0
-407 406 0
-407 776 0
408 -868 -405 0
-408 868 0
-408 405 0
409 -827 -32 0
-409 827 0
-409 32 0
410 -409 -4 0
-410 409 0
-410 4 0
411 -869 -408 0
-411 869 0
-411 408 0
412 -817 -28 0
-412 817 0
-412 28 0
413 -412 -30 0
-413 412 0
-413 30 0
414 -870 -411 0
-414 870 0
-414 411 0
415 -331 -26 0
-415 331 0
-415 26 0
416 -871 -414 0
-416 871 0
-416 414 0
417 -45 -717 0
-417 45 0
-417 717 0
418 -417 -707 0
-418 417 0
-418 707 0
419 -872 -416 0
-419 872 0
-419 416 0
420 -24 -783 0
-420 24 0
-420 783 0
421 -420 -46 0
-421 420 0
-421 46 0
422 -873 -419 0
-422 873 0
-422 419 0
423 -49 -24 0
-423 49 0
-423 24 0
424 -423 -722 0
-424 423 0
-424 722 0
425 -874 -422 0
-425 874 0
-425 422 0
426 -24 -7 0
-426 24 0
-426 7 0
427 -426 -35 0
-427 426 0
-427 35 0
428 -875 -425 0
-428 875 0
-428 425 0
429 -12 -10 0
-429 12 0
-429 10 0
430 -429 -743 0
-430 429 0
-430 743 0
431 -876 -428 0
-431 876 0
-431 428 0
432 -771 -5 0
-432 771 0
-432 5 0
433 -432 -743 0
-433 432 0
-433 743 0
434 -877 -431 0
-434 877 0
-434 431 0
435 -751 -13 0
-435 751 0
-435 13 0
436 -435 -12 0
-436 435 0
-436 12 0
437 -878 -434 0
-437 878 0
-437 434 0
438 -44 -717 0
-438 44 0
-438 717 0
439 -438 -725 0
-439 438 0
-439 725 0
440 -879 -437 0
-440 879 0
-440 437 0
441 -35 -785 0
-441 35 0
-441 785 0
442 -441 -5 0
-442 441 0
-442 5 0
443 -880 -440 0
-443 880 0
-443 440 0
444 -35 -19 0
-444 35 0
-444 19 0
445 -444 -12 0
-445 444 0
-445 12 0
446 -881 -443 0
-446 881 0
-446 443 0
447 -41 -748 0
-447 41 0
-447 748 0
448 -447 -24 0
-448 447 0
-448 24 0
449 -882 -446 0
-449 882 0
-449 446 0
450 -773 -757 0
-450 773 0
-450 757 0
451 -450 -39 0
-451 450 0
-451 39 0
452 -883 -449 0
-452 883 0
-452 449 0
453 -824 -17 0
-453 824 0
-453 17 0
454 -453 -730 0
-454 453 0
-454 730 0
455 -884 -452 0
-455 884 0
-455 452 0
456 -15 -701 0
-456 15 0
-456 701 0
457 -456 -23 0
-457 456 0
-457 23 0
458 -885 -455 0
-458 885 0
-458 455 0
459 -886 -16 0
-459 886 0
-459 16 0
460 -459 -22 0
-460 459 0
-460 22 0
461 -887 -458 0
-461 887 0
-461 458 0
462 -763 -739 0
-462 763 0
-462 739 0
463 -462 -730 0
-463 462 0
-463 730 0
464 -888 -461 0
-464 888 0
-464 461 0
465 -46 -5 0
-465 46 0
-465 5 0
466 -465 -778 0
-466 465 0
-466 778 0
467 -889 -464 0
-467 889 0
-467 464 0
468 -828 -771 0
-468 828 0
-468 771 0
469 -468 -743 0
-469 468 0
-469 743 0
470 -890 -467 0
-470 890 0
-470 467 0
471 -36 -783 0
-471 36 0
-471 783 0
472 -471 -727 0
-472 471 0
-472 727 0
473 -891 -470 0
-473 891 0
-473 470 0
474 -824 -701 0
-474 824 0
-474 701 0
475 -474 -40 0
-475 474 0
-475 40 0
476 -892 -473 0
-476 892 0
-476 473 0
477 -21 -13 0
-477 21 0
-477 13 0
478 -477 -40 0
-478 477 0
-478 40 0
479 -893 -476 0
-479 893 0
-479 476 0
480 -771 -20 0
-480 771 0
-480 20 0
481 -480 -705 0
-481 480 0
-481 705 0
482 -894 -479 0
-482 894 0
-482 479 0
483 -44 -41 0
-483 44 0
-483 41 0
484 -483 -763 0
-484 483 0
-484 763 0
485 -895 -482 0
-485 895 0
-485 482 0
486 -817 -10 0
-486 817 0
-486 10 0
487 -486 -770 0
-487 486 0
-487 770 0
488 -896 -485 0
-488 896 0
-488 485 0
489 -773 -735 0
-489 773 0
-489 735 0
490 -489 -31 0
-490 489 0
-490 31 0
491 -897 -488 0
-491 897 0
-491 488 0
492 -728 -705 0
-492 728 0
-492 705 0
493 -492 -23 0
-493 492 0
-493 23 0
494 -898 -491 0
-494 898 0
-494 491 0
495 -47 -34 0
-495 47 0
-495 34 0
496 -495 -39 0
-496 495 0
-496 39 0
497 -899 -494 0
-497 899 0
-497 494 0
498 -807 -727 0
-498 807 0
-498 727 0
499 -498 -5 0
-499 498 0
-499 5 0
500 -900 -497 0
-500 900 0
-500 497 0
501 -29 -28 0
-501 29 0
-501 28 0
502 -501 -776 0
-502 501 0
-502 776 0
503 -901 -500 0
-503 901 0
-503 500 0
504 -50 -817 0
-504 50 0
-504 817 0
505 -504 -730 0
-505 504 0
-505 730 0
506 -902 -503 0
-506 902 0
-506 503 0
507 -824 -709 0
-507 824 0
-507 709 0
508 -507 -43 0
-508 507 0
-508 43 0
509 -903 -506 0
-509 903 0
-509 506 0
510 -25 -754 0
-510 25 0
-510 754 0
511 -510 -27 0
-511 510 0
-511 27 0
512 -904 -509 0
-512 904 0
-512 509 0
513 -37 -719 0
-513 37 0
-513 719 0
514 -513 -43 0
-514 513 0
-514 43 0
515 -905 -512 0
-515 905 0
-515 512 0
516 -11 -2 0
-516 11 0
-516 2 0
517 -516 -766 0
-517 516 0
-517 766 0
518 -906 -515 0
-518 906 0
-518 515 0
519 -29 -712 0
-519 29 0
-519 712 0
520 -519 -700 0
-520 519 0
-520 700 0
521 -907 -518 0
-521 907 0
-521 518 0
522 -789 -21 0
-522 789 0
-522 21 0
523 -522 -24 0
-523 522 0
-523 24 0
524 -908 -521 0
-524 908 0
-524 521 0
525 -18 -739 0
-525 18 0
-525 739 0
526 -525 -6 0
-526 525 0
-526 6 0
527 -909 -524 0
-527 909 0
-527 524 0
528 -824 -19 0
-528 824 0
-528 19 0
529 -528 -20 0
-529 528 0
-529 20 0
530 -910 -527 0
-530 910 0
-530 527 0
531 -761 -705 0
-531 761 0
-531 705 0
532 -531 -39 0
-532 531 0
-532 39 0
533 -911 -530 0
-533 911 0
-533 530 0
534 -31 -754 0
-534 31 0
-534 754 0
535 -534 -776 0
-535 534 0
-535 776 0
536 -912 -533 0
-536 912 0
-536 533 0
537 -735 -9 0
-537 735 0
-537 9 0
538 -537 -33 0
-538 537 0
-538 33 0
539 -913 -536 0
-539 913 0
-539 536 0
540 -42 -22 0
-540 42 0
-540 22 0
541 -540 -6 0
-541 540 0
-541 6 0
542 -914 -539 0
-542 914 0
-542 539 0
543 -757 -1 0
-543 757 0
-543 1 0
544 -543 -789 0
-544 543 0
-544 789 0
545 -915 -542 0
-545 915 0
-545 542 0
546 -18 -1 0
-546 18 0
-546 1 0
547 -546 -761 0
-547 546 0
-547 761 0
548 -916 -545 0
-548 916 0
-548 545 0
549 -771 -2 0
-549 771 0
-549 2 0
550 -549 -707 0
-550 549 0
-550 707 0
551 -917 -548 0
-551 917 0
-551 548 0
552 -32 -707 0
-552 32 0
-552 707 0
553 -552 -27 0
-553 552 0
-553 27 0
554 -918 -551 0
-554 918 0
-554 551 0
555 -817 -7 0
-555 817 0
-555 7 0
556 -555 -9 0
-556 555 0
-556 9 0
557 -919 -554 0
-557 919 0
-557 554 0
558 -49 -802 0
-558 49 0
-558 802 0
559 -558 -39 0
-559 558 0
-559 39 0
560 -920 -557 0
-560 920 0
-560 557 0
561 -17 -712 0
-561 17 0
-561 712 0
562 -561 -22 0
-562 561 0
-562 22 0
563 -921 -560 0
-563 921 0
-563 560 0
564 -35 -748 0
-564 35 0
-564 748 0
565 -564 -743 0
-565 564 0
-565 743 0
566 -922 -563 0
-566 922 0
-566 563 0
567 -817 -709 0
-567 817 0
-567 709 0
568 -567 -725 0
-568 567 0
-568 725 0
569 -923 -566 0
-569 923 0
-569 566 0
570 -22 -9 0
-570 22 0
-570 9 0
571 -570 -6 0
-571 570 0
-571 6 0
572 -924 -569 0
-572 924 0
-572 569 0
573 -44 -7 0
-573 44 0
-573 7 0
574 -573 -2 0
-574 573 0
-574 2 0
575 -925 -572 0
-575 925 0
-575 572 0
576 -50 -728 0
-576 50 0
-576 728 0
577 -576 -725 0
-577 576 0
-577 725 0
578 -926 -575 0
-578 926 0
-578 575 0
579 -46 -10 0
-579 46 0
-579 10 0
580 -579 -713 0
-580 579 0
-580 713 0
581 -927 -578 0
-581 927 0
-581 578 0
582 -827 -717 0
-582 827 0
-582 717 0
583 -582 -743 0
-583 582 0
-583 743 0
584 -928 -581 0
-584 928 0
-584 581 0
585 -42 -17 0
-585 42 0
-585 17 0
586 -585 -6 0
-586 585 0
-586 6 0
587 -929 -584 0
-587 929 0
-587 584 0
588 -38 -25 0
-588 38 0
-588 25 0
589 -588 -773 0
-589 588 0
-589 773 0
590 -930 -587 0
-590 930 0
-590 587 0
591 -715 -754 0
-591 715 0
-591 754 0
592 -591 -770 0
-592 591 0
-592 770 0
593 -931 -590 0
-593 931 0
-593 590 0
594 -42 -12 0
-594 42 0
-594 12 0
595 -594 -40 0
-595 594 0
-595 40 0
596 -932 -593 0
-596 932 0
-596 593 0
597 -19 -11 0
-597 19 0
-597 11 0
598 -597 -776 0
-598 597 0
-598 776 0
599 -933 -596 0
-599 933 0
-599 596 0
600 -34 -748 0
-600 34 0
-600 748 0
601 -600 -44 0
-601 600 0
-601 44 0
602 -934 -599 0
-602 934 0
-602 599 0
603 -754 -748 0
-603 754 0
-603 748 0
604 -603 -713 0
-604 603 0
-604 713 0
605 -935 -602 0
-605 935 0
-605 602 0
606 -789 -29 0
-606 789 0
-606 29 0
607 -606 -44 0
-607 606 0
-607 44 0
608 -936 -605 0
-608 936 0
-608 605 0
609 -16 -748 0
-609 16 0
-609 748 0
610 -609 -9 0
-610 609 0
-610 9 0
611 -937 -608 0
-611 937 0
-611 608 0
612 -773 -40 0
-612 773 0
-612 40 0
613 -612 -39 0
-613 612 0
-613 39 0
614 -938 -611 0
-614 938 0
-614 611 0
615 -107 -701 0
-615 107 0
-615 701 0
616 -939 -614 0
-616 939 0
-616 614 0
617 -773 -38 0
-617 773 0
-617 38 0
618 -617 -720 0
-618 617 0
-618 720 0
619 -940 -616 0
-619 940 0
-619 616 0
620 -44 -4 0
-620 44 0
-620 4 0
621 -620 -5 0
-621 620 0
-621 5 0
622 -941 -619 0
-622 941 0
-622 619 0
623 -47 -37 0
-623 47 0
-623 37 0
624 -623 -6 0
-624 623 0
-624 6 0
625 -942 -622 0
-625 942 0
-625 622 0
626 -44 -30 0
-626 44 0
-626 30 0
627 -626 -33 0
-627 626 0
-627 33 0
628 -943 -625 0
-628 943 0
-628 625 0
629 -32 -796 0
-629 32 0
-629 796 0
630 -629 -5 0
-630 629 0
-630 5 0
631 -944 -628 0
-631 944 0
-631 628 0
632 -49 -32 0
-632 49 0
-632 32 0
633 -632 -23 0
-633 632 0
-633 23 0
634 -945 -631 0
-634 945 0
-634 631 0
635 -47 -717 0
-635 47 0
-635 717 0
636 -635 -886 0
-636 635 0
-636 886 0
637 -946 -634 0
-637 946 0
-637 634 0
638 -343 -40 0
-638 343 0
-638 40 0
639 -947 -637 0
-639 947 0
-639 637 0
640 -15 -4 0
-640 15 0
-640 4 0
641 -640 -751 0
-641 640 0
-641 751 0
642 -948 -639 0
-642 948 0
-642 639 0
643 -828 -41 0
-643 828 0
-643 41 0
644 -643 -763 0
-644 643 0
-644 763 0
645 -949 -642 0
-645 949 0
-645 642 0
646 -746 -705 0
-646 746 0
-646 705 0
647 -646 -33 0
-647 646 0
-647 33 0
648 -950 -645 0
-648 950 0
-648 645 0
649 -46 -35 0
-649 46 0
-649 35 0
650 -649 -5 0
-650 649 0
-650 5 0
651 -951 -648 0
-651 951 0
-651 648 0
652 -40 -23 0
-652 40 0
-652 23 0
653 -652 -27 0
-653 652 0
-653 27 0
654 -952 -651 0
-654 952 0
-654 651 0
655 -746 -1 0
-655 746 0
-655 1 0
656 -655 -41 0
-656 655 0
-656 41 0
657 -953 -654 0
-657 953 0
-657 654 0
658 -761 -820 0
-658 761 0
-658 820 0
659 -658 -6 0
-659 658 0
-659 6 0
660 -954 -657 0
-660 954 0
-660 657 0
661 -796 -764 0
-661 796 0
-661 764 0
662 -661 -31 0
-662 661 0
-662 31 0
663 -955 -660 0
-663 955 0
-663 660 0
664 -761 -28 0
-664 761 0
-664 28 0
665 -664 -14 0
-665 664 0
-665 14 0
666 -956 -663 0
-666 956 0
-666 663 0
667 -743 -34 0
-667 743 0
-667 34 0
668 -667 -31 0
-668 667 0
-668 31 0
669 -957 -666 0
-669 957 0
-669 666 0
670 -828 -746 0
-670 828 0
-670 746 0
671 -670 -886 0
-671 670 0
-671 886 0
672 -958 -669 0
-672 958 0
-672 669 0
673 -19 -701 0
-673 19 0
-673 701 0
674 -673 -6 0
-674 673 0
-674 6 0
675 -959 -672 0
-675 959 0
-675 672 0
676 -45 -15 0
-676 45 0
-676 15 0
677 -676 -43 0
-677 676 0
-677 43 0
678 -960 -675 0
-678 960 0
-678 675 0
679 -49 -43 0
-679 49 0
-679 43 0
680 -679 -12 0
-680 679 0
-680 12 0
681 -961 -678 0
-681 961 0
-681 678 0
682 -735 -18 0
-682 735 0
-682 18 0
683 -682 -3 0
-683 682 0
-683 3 0
684 -962 -681 0
-684 962 0
-684 681 0
685 -22 -7 0
-685 22 0
-685 7 0
686 -685 -776 0
-686 685 0
-686 776 0
687 -963 -684 0
-687 963 0
-687 684 0
688 -40 -20 0
-688 40 0
-688 20 0
689 -688 -27 0
-689 688 0
-689 27 0
690 -964 -687 0
-690 964 0
-690 687 0
691 -751 -19 0
-691 751 0
-691 19 0
692 -691 -722 0
-692 691 0
-692 722 0
693 -965 -690 0
-693 965 0
-693 690 0
694 -19 -799 0
-694 19 0
-694 799 0
695 -694 -761 0
-695 694 0
-695 761 0
696 -966 -693 0
-696 966 0
-696 693 0
697 -25 -717 0
-697 25 0
-697 717 0
698 -697 -799 0
-698 697 0
-698 799 0
699 -967 -696 0
-699 967 0
-699 696 0
-700 -2 0
700 2 0
-701 -3 0
701 3 0
-702 -5 0
702 5 0
-703 -54 0
703 54 0
-704 -52 0
704 52 0
-705 -9 0
705 9 0
-706 -57 0
706 57 0
-707 -12 0
707 12 0
-708 -60 0
708 60 0
-709 -13 0
709 13 0
-710 -63 0
710 63 0
-711 -66 0
711 66 0
-712 -16 0
712 16 0
-713 -11 0
713 11 0
-714 -69 0
714 69 0
-715 -18 0
715 18 0
-716 -72 0
716 72 0
-717 -20 0
717 20 0
-718 -75 0
718 75 0
-719 -21 0
719 21 0
-720 -22 0
720 22 0
-721 -78 0
721 78 0
-722 -23 0
722 23 0
-723 -81 0
723 81 0
-724 -84 0
724 84 0
-725 -26 0
725 26 0
-726 -87 0
726 87 0
-727 -29 0
727 29 0
-728 -28 0
728 28 0
-729 -90 0
729 90 0
-730 -31 0
730 31 0
-731 -93 0
731 93 0
-732 -30 0
732 30 0
-733 -96 0
733 96 0
-734 -99 0
734 99 0
-735 -34 0
735 34 0
-736 -102 0
736 102 0
-737 -35 0
737 35 0
-738 -105 0
738 105 0
-739 -1 0
739 1 0
-740 -108 0
740 108 0
-741 -111 0
741 111 0
-742 -114 0
742 114 0
-743 -39 0
743 39 0
-744 -117 0
744 117 0
-745 -120 0
745 120 0
-746 -36 0
746 36 0
-747 -123 0
747 123 0
-748 -4 0
748 4 0
-749 -126 0
749 126 0
-750 -129 0
750 129 0
-751 -41 0
751 41 0
-752 -132 0
752 132 0
-753 -135 0
753 135 0
-754 -10 0
754 10 0
-755 -138 0
755 138 0
-756 -141 0
756 141 0
-757 -7 0
757 7 0
-758 -144 0
758 144 0
-759 -147 0
759 147 0
-760 -149 0
760 149 0
-761 -45 0
761 45 0
-762 -152 0
762 152 0
-763 -43 0
763 43 0
-764 -6 0
764 6 0
-765 -155 0
765 155 0
-766 -40 0
766 40 0
-767 -158 0
767 158 0
-768 -161 0
768 161 0
-769 -164 0
769 164 0
-770 -33 0
770 33 0
-771 -24 0
771 24 0
-772 -167 0
772 167 0
-773 -46 0
773 46 0
-774 -170 0
774 170 0
-775 -173 0
775 173 0
-776 -27 0
776 27 0
-777 -176 0
777 176 0
-778 -14 0
778 14 0
-779 -179 0
779 179 0
-780 -182 0
780 182 0
-781 -185 0
781 185 0
-782 -188 0
782 188 0
-783 -15 0
783 15 0
-784 -191 0
784 191 0
-785 -19 0
785 19 0
-786 -194 0
786 194 0
-787 -197 0
787 197 0
-788 -200 0
788 200 0
-789 -48 0
789 48 0
-790 -203 0
790 203 0
-791 -206 0
791 206 0
-792 -209 0
792 209 0
-793 -212 0
793 212 0
-794 -215 0
794 215 0
-795 -218 0
795 218 0
-796 -17 0
796 17 0
-797 -221 0
797 221 0
-798 -224 0
798 224 0
-799 -8 0
799 8 0
-800 -227 0
800 227 0
-801 -230 0
801 230 0
-802 -47 0
802 47 0
-803 -233 0
803 233 0
-804 -236 0
804 236 0
-805 -42 0
805 42 0
-806 -239 0
806 239 0
-807 -37 0
807 37 0
-808 -242 0
808 242 0
-809 -245 0
809 245 0
-810 -248 0
810 248 0
-811 -251 0
811 251 0
-812 -254 0
812 254 0
-813 -257 0
813 257 0
-814 -260 0
814 260 0
-815 -263 0
815 263 0
-816 -266 0
816 266 0
-817 -38 0
817 38 0
-818 -269 0
818 269 0
-819 -272 0
819 272 0
-820 -44 0
820 44 0
-821 -275 0
821 275 0
-822 -278 0
822 278 0
-823 -281 0
823 281 0
-824 -25 0
824 25 0
-825 -284 0
825 284 0
-826 -287 0
826 287 0
-827 -50 0
827 50 0
-828 -49 0
828 49 0
-829 -290 0
829 290 0
-830 -293 0
830 293 0
-831 -296 0
831 296 0
-832 -299 0
832 299 0
-833 -302 0
833 302 0
-834 -305 0
834 305 0
-835 -308 0
835 308 0
-836 -311 0
836 311 0
-837 -314 0
837 314 0
-838 -317 0
838 317 0
-839 -320 0
839 320 0
-840 -323 0
840 323 0
-841 -326 0
841 326 0
-842 -329 0
842 329 0
-843 -332 0
843 332 0
-844 -335 0
844 335 0
-845 -338 0
845 338 0
-846 -341 0
846 341 0
-847 -344 0
847 344 0
-848 -347 0
848 347 0
-849 -350 0
849 350 0
-850 -353 0
850 353 0
-851 -356 0
851 356 0
-852 -359 0
852 359 0
-853 -362 0
853 362 0
-854 -365 0
854 365 0
-855 -368 0
855 368 0
-856 -371 0
856 371 0
-857 -374 0
857 374 0
-858 -377 0
858 377 0
-859 -380 0
859 380 0
-860 -383 0
860 383 0
-861 -386 0
861 386 0
-862 -389 0
862 389 0
-863 -392 0
863 392 0
-864 -395 0
864 395 0
-865 -398 0
865 398 0
-866 -401 0
866 401 0
-867 -404 0
867 404 0
-868 -407 0
868 407 0
-869 -410 0
869 410 0
-870 -413 0
870 413 0
-871 -415 0
871 415 0
-872 -418 0
872 418 0
-873 -421 0
873 421 0
-874 -424 0
874 424 0
-875 -427 0
875 427 0
-876 -430 0
876 430 0
-877 -433 0
877 433 0
-878 -436 0
878 436 0
-879 -439 0
879 439 0
-880 -442 0
880 442 0
-881 -445 0
881 445 0
-882 -448 0
882 448 0
-883 -451 0
883 451 0
-884 -454 0
884 454 0
-885 -457 0
885 457 0
-886 -32 0
886 32 0
-887 -460 0
887 460 0
-888 -463 0
888 463 0
-889 -466 0
889 466 0
-890 -469 0
890 469 0
-891 -472 0
891 472 0
-892 -475 0
892 475 0
-893 -478 0
893 478 0
-894 -481 0
894 481 0
-895 -484 0
895 484 0
-896 -487 0
896 487 0
-897 -490 0
897 490 0
-898 -493 0
898 493 0
-899 -496 0
899 496 0
-900 -499 0
900 499 0
-901 -502 0
901 502 0
-902 -505 0
902 505 0
-903 -508 0
903 508 0
-904 -511 0
904 511 0
-905 -514 0
905 514 0
-906 -517 0
906 517 0
-907 -520 0
907 520 0
-908 -523 0
908 523 0
-909 -526 0
909 526 0
-910 -529 0
910 529 0
-911 -532 0
911 532 0
-912 -535 0
912 535 0
-913 -538 0
913 538 0
-914 -541 0
914 541 0
-915 -544 0
915 544 0
-916 -547 0
916 547 0
-917 -550 0
917 550 0
-918 -553 0
918 553 0
-919 -556 0
919 556 0
-920 -559 0
920 559 0
-921 -562 0
921 562 0
-922 -565 0
922 565 0
-923 -568 0
923 568 0
-924 -571 0
924 571 0
-925 -574 0
925 574 0
-926 -577 0
926 577 0
-927 -580 0
927 580 0
-928 -583 0
928 583 0
-929 -586 0
929 586 0
-930 -589 0
930 589 0
-931 -592 0
931 592 0
-932 -595 0
932 595 0
-933 -598 0
933 598 0
-934 -601 0
934 601 0
-935 -604 0
935 604 0
-936 -607 0
936 607 0
-937 -610 0
937 610 0
-938 -613 0
938 613 0
-939 -615 0
939 615 0
-940 -618 0
940 618 0
-941 -621 0
941 621 0
-942 -624 0
942 624 0
-943 -627 0
943 627 0
-944 -630 0
944 630 0
-945 -633 0
945 633 0
-946 -636 0
946 636 0
-947 -638 0
947 638 0
-948 -641 0
948 641 0
-949 -644 0
949 644 0
-950 -647 0
950 647 0
-951 -650 0
951 650 0
-952 -653 0
952 653 0
-953 -656 0
953 656 0
-954 -659 0
954 659 0
-955 -662 0
955 662 0
-956 -665 0
956 665 0
-957 -668 0
957 668 0
-958 -671 0
958 671 0
-959 -674 0
959 674 0
-960 -677 0
960 677 0
-961 -680 0
961 680 0
-962 -683 0
962 683 0
-963 -686 0
963 686 0
-964 -689 0
964 689 0
-965 -692 0
965 692 0
-966 -695 0
966 695 0
-967 -698 0
967 698 0
699 0
